(set-option :produce-models true); benchmark generated from python API
(set-info :status unknown)
(declare-fun l_1_0_35 () Real)
(declare-fun l_1_0_34 () Real)
(declare-fun l_1_0_32 () Real)
(declare-fun l_1_0_31 () Real)
(declare-fun l_1_0_30 () Real)
(declare-fun l_1_0_27 () Real)
(declare-fun _a_0_ () Real)
(declare-fun l_1_0_33 () Real)
(declare-fun l_1_0_3 () Real)
(declare-fun l_1_0_28 () Real)
(declare-fun l_1_0_19 () Real)
(declare-fun l_1_0_18 () Real)
(declare-fun l_1_0_13 () Real)
(declare-fun l_1_0_11 () Real)
(declare-fun _a_1_ () Real)
(declare-fun l_1_0_9 () Real)
(declare-fun l_1_0_8 () Real)
(declare-fun l_1_0_37 () Real)
(declare-fun l_1_0_36 () Real)
(declare-fun l_1_0_21 () Real)
(declare-fun l_1_0_2 () Real)
(declare-fun l_1_0_16 () Real)
(declare-fun l_1_0_12 () Real)
(declare-fun _a_2_ () Real)
(declare-fun l_1_0_7 () Real)
(declare-fun l_1_0_22 () Real)
(declare-fun l_1_0_15 () Real)
(declare-fun l_1_0_1 () Real)
(declare-fun _a_3_ () Real)
(declare-fun l_1_0_6 () Real)
(declare-fun l_1_0_5 () Real)
(declare-fun l_1_0_4 () Real)
(declare-fun l_1_0_25 () Real)
(declare-fun l_1_0_24 () Real)
(declare-fun l_1_0_23 () Real)
(declare-fun l_1_0_17 () Real)
(declare-fun l_1_0_14 () Real)
(declare-fun l_1_0_38 () Real)
(declare-fun l_1_0_29 () Real)
(declare-fun l_1_0_26 () Real)
(declare-fun l_1_0_20 () Real)
(declare-fun l_1_0_10 () Real)
(declare-fun l_1_1_9 () Real)
(declare-fun l_1_1_4 () Real)
(declare-fun l_1_1_35 () Real)
(declare-fun l_1_1_34 () Real)
(declare-fun l_1_1_32 () Real)
(declare-fun l_1_1_30 () Real)
(declare-fun l_1_1_26 () Real)
(declare-fun l_1_1_24 () Real)
(declare-fun l_1_1_15 () Real)
(declare-fun l_1_1_12 () Real)
(declare-fun l_1_1_11 () Real)
(declare-fun l_1_1_6 () Real)
(declare-fun l_1_1_3 () Real)
(declare-fun l_1_1_28 () Real)
(declare-fun l_1_1_17 () Real)
(declare-fun l_1_1_10 () Real)
(declare-fun l_1_1_7 () Real)
(declare-fun l_1_1_5 () Real)
(declare-fun l_1_1_33 () Real)
(declare-fun l_1_1_27 () Real)
(declare-fun l_1_1_22 () Real)
(declare-fun l_1_1_21 () Real)
(declare-fun l_1_1_20 () Real)
(declare-fun l_1_1_16 () Real)
(declare-fun l_1_1_1 () Real)
(declare-fun l_1_1_37 () Real)
(declare-fun l_1_1_36 () Real)
(declare-fun l_1_1_31 () Real)
(declare-fun l_1_1_29 () Real)
(declare-fun l_1_1_25 () Real)
(declare-fun l_1_1_2 () Real)
(declare-fun l_1_1_18 () Real)
(declare-fun l_1_1_8 () Real)
(declare-fun l_1_1_13 () Real)
(declare-fun l_1_1_19 () Real)
(declare-fun l_1_1_14 () Real)
(declare-fun l_1_1_38 () Real)
(declare-fun l_1_1_23 () Real)
(declare-fun l_1_2_9 () Real)
(declare-fun l_1_2_8 () Real)
(declare-fun l_1_2_47 () Real)
(declare-fun l_1_2_46 () Real)
(declare-fun l_1_2_44 () Real)
(declare-fun l_1_2_41 () Real)
(declare-fun l_1_2_40 () Real)
(declare-fun l_1_2_4 () Real)
(declare-fun l_1_2_39 () Real)
(declare-fun l_1_2_38 () Real)
(declare-fun l_1_2_35 () Real)
(declare-fun l_1_2_31 () Real)
(declare-fun l_1_2_29 () Real)
(declare-fun l_1_2_22 () Real)
(declare-fun l_1_2_21 () Real)
(declare-fun l_1_2_15 () Real)
(declare-fun l_1_2_1 () Real)
(declare-fun l_1_2_6 () Real)
(declare-fun l_1_2_43 () Real)
(declare-fun l_1_2_42 () Real)
(declare-fun l_1_2_30 () Real)
(declare-fun l_1_2_28 () Real)
(declare-fun l_1_2_18 () Real)
(declare-fun l_1_2_11 () Real)
(declare-fun l_1_2_49 () Real)
(declare-fun l_1_2_48 () Real)
(declare-fun l_1_2_37 () Real)
(declare-fun l_1_2_36 () Real)
(declare-fun l_1_2_32 () Real)
(declare-fun l_1_2_3 () Real)
(declare-fun l_1_2_23 () Real)
(declare-fun l_1_2_20 () Real)
(declare-fun l_1_2_12 () Real)
(declare-fun l_1_2_33 () Real)
(declare-fun l_1_2_17 () Real)
(declare-fun l_1_2_45 () Real)
(declare-fun l_1_2_34 () Real)
(declare-fun l_1_2_26 () Real)
(declare-fun l_1_2_25 () Real)
(declare-fun l_1_2_24 () Real)
(declare-fun l_1_2_2 () Real)
(declare-fun l_1_2_19 () Real)
(declare-fun l_1_2_16 () Real)
(declare-fun l_1_2_14 () Real)
(declare-fun l_1_2_13 () Real)
(declare-fun l_1_2_10 () Real)
(declare-fun l_1_2_5 () Real)
(declare-fun l_1_2_27 () Real)
(declare-fun l_1_2_7 () Real)
(declare-fun l_1_2_50 () Real)
(declare-fun l_1_3_6 () Real)
(declare-fun l_1_3_35 () Real)
(declare-fun l_1_3_34 () Real)
(declare-fun l_1_3_32 () Real)
(declare-fun l_1_3_31 () Real)
(declare-fun l_1_3_29 () Real)
(declare-fun l_1_3_28 () Real)
(declare-fun l_1_3_27 () Real)
(declare-fun l_1_3_21 () Real)
(declare-fun l_1_3_11 () Real)
(declare-fun l_1_3_1 () Real)
(declare-fun l_1_3_8 () Real)
(declare-fun l_1_3_7 () Real)
(declare-fun l_1_3_4 () Real)
(declare-fun l_1_3_23 () Real)
(declare-fun l_1_3_12 () Real)
(declare-fun l_1_3_33 () Real)
(declare-fun l_1_3_22 () Real)
(declare-fun l_1_3_2 () Real)
(declare-fun l_1_3_17 () Real)
(declare-fun l_1_3_14 () Real)
(declare-fun l_1_3_13 () Real)
(declare-fun l_1_3_3 () Real)
(declare-fun l_1_3_16 () Real)
(declare-fun l_1_3_37 () Real)
(declare-fun l_1_3_36 () Real)
(declare-fun l_1_3_25 () Real)
(declare-fun l_1_3_24 () Real)
(declare-fun l_1_3_20 () Real)
(declare-fun l_1_3_19 () Real)
(declare-fun l_1_3_18 () Real)
(declare-fun l_1_3_5 () Real)
(declare-fun l_1_3_10 () Real)
(declare-fun l_1_3_30 () Real)
(declare-fun l_1_3_26 () Real)
(declare-fun l_1_3_15 () Real)
(declare-fun l_1_3_9 () Real)
(declare-fun l_1_3_38 () Real)
(assert
 (let ((?x128 (* l_1_0_35 l_1_0_35)))
 (let ((?x129 (* l_1_0_34 l_1_0_34)))
 (let ((?x2607 (- (- (- (- (- _a_0_ l_1_0_27) l_1_0_30) l_1_0_31) l_1_0_32) ?x129)))
 (= (- ?x2607 ?x128) 0.0)))))
(assert
 (let ((?x120 (- (+ (+ (- (+ _a_1_ l_1_0_11) l_1_0_13) l_1_0_18) l_1_0_19) l_1_0_28)))
 (= (- (- ?x120 l_1_0_3) (* (* 2.0 l_1_0_33) l_1_0_34)) 0.0)))
(assert
 (let ((?x2512 (- (+ (+ (- (- _a_2_ l_1_0_12) l_1_0_16) l_1_0_2) l_1_0_21) (* (* 2.0 l_1_0_34) l_1_0_36))))
 (let ((?x2517 (+ (- (- ?x2512 (* (* 2.0 l_1_0_35) l_1_0_37)) l_1_0_8) l_1_0_9)))
 (= ?x2517 0.0))))
(assert
 (let ((?x2456 (* l_1_0_33 l_1_0_33)))
 (let ((?x2458 (- (- (+ (+ (- _a_3_ l_1_0_1) l_1_0_15) l_1_0_22) ?x2456) l_1_0_7)))
 (= ?x2458 0.0))))
(assert
 (let ((?x2018 (- (- (+ (- (+ l_1_0_14 l_1_0_17) l_1_0_23) l_1_0_24) l_1_0_25) (* (* 2.0 l_1_0_33) l_1_0_36))))
 (= (- (- (+ ?x2018 l_1_0_4) l_1_0_5) l_1_0_6) 0.0)))
(assert
 (let ((?x2259 (* l_1_0_38 l_1_0_38)))
 (let ((?x460 (* l_1_0_37 l_1_0_37)))
 (let ((?x2362 (* l_1_0_36 l_1_0_36)))
 (let ((?x2258 (- (- (- (+ (- l_1_0_10 l_1_0_20) l_1_0_26) l_1_0_29) ?x2362) ?x460)))
 (= (- ?x2258 ?x2259) 0.0))))))
(assert
 (>= l_1_0_1 0.0))
(assert
 (>= l_1_0_2 0.0))
(assert
 (>= l_1_0_3 0.0))
(assert
 (>= l_1_0_4 0.0))
(assert
 (>= l_1_0_5 0.0))
(assert
 (>= l_1_0_6 0.0))
(assert
 (>= l_1_0_7 0.0))
(assert
 (>= l_1_0_8 0.0))
(assert
 (>= l_1_0_9 0.0))
(assert
 (>= l_1_0_10 0.0))
(assert
 (>= l_1_0_11 0.0))
(assert
 (>= l_1_0_12 0.0))
(assert
 (>= l_1_0_13 0.0))
(assert
 (>= l_1_0_14 0.0))
(assert
 (>= l_1_0_15 0.0))
(assert
 (>= l_1_0_16 0.0))
(assert
 (>= l_1_0_17 0.0))
(assert
 (>= l_1_0_18 0.0))
(assert
 (>= l_1_0_19 0.0))
(assert
 (>= l_1_0_20 0.0))
(assert
 (>= l_1_0_21 0.0))
(assert
 (>= l_1_0_22 0.0))
(assert
 (>= l_1_0_23 0.0))
(assert
 (>= l_1_0_24 0.0))
(assert
 (>= l_1_0_25 0.0))
(assert
 (>= l_1_0_26 0.0))
(assert
 (>= l_1_0_27 0.0))
(assert
 (>= l_1_0_28 0.0))
(assert
 (>= l_1_0_29 0.0))
(assert
 (>= l_1_0_30 0.0))
(assert
 (>= l_1_0_31 0.0))
(assert
 (>= l_1_0_32 0.0))
(assert
 (>= l_1_0_33 0.0))
(assert
 (>= l_1_0_35 0.0))
(assert
 (>= l_1_0_38 0.0))
(assert
 (let ((?x2021 (* 25.0 l_1_1_9)))
 (let ((?x2121 (* l_1_1_35 l_1_1_35)))
 (let ((?x2119 (* l_1_1_34 l_1_1_34)))
 (let ((?x2113 (* 5.0 l_1_1_15)))
 (let ((?x2110 (* 5.0 l_1_1_12)))
 (let ((?x2108 (* 5.0 l_1_1_11)))
 (let ((?x1906 (* _a_0_ l_1_1_6)))
 (let ((?x2107 (* _a_0_ l_1_1_3)))
 (let ((?x2106 (+ (- (* (* 5.0 _a_0_) l_1_1_10) (* _a_0_ l_1_1_17)) (* (* 5.0 _a_0_) l_1_1_28))))
 (let ((?x1996 (- (- (+ (+ (+ (- (- ?x2106 ?x2107) ?x1906) ?x2108) ?x2110) ?x2113) l_1_1_24) l_1_1_26)))
 (let ((?x2122 (- (- (- (- ?x1996 (* (* l_1_1_30 _a_0_) _a_0_)) l_1_1_32) ?x2119) ?x2121)))
 (= (- (- ?x2122 l_1_1_4) ?x2021) 0.0)))))))))))))
(assert
 (let ((?x81 (* 15.0 l_1_1_7)))
 (let ((?x1895 (* l_1_1_33 l_1_1_33)))
 (let ((?x95 (* 15.0 l_1_1_22)))
 (let ((?x1922 (* 100.0 l_1_1_1)))
 (let ((?x1919 (* _a_3_ l_1_1_6)))
 (let ((?x1923 (- (- (- (* (- _a_3_) l_1_1_17) (* _a_3_ l_1_1_3)) ?x1919) ?x1922)))
 (let ((?x99 (- (- (- ?x1923 (* l_1_1_10 (- _a_1_ (* 5.0 _a_3_)))) l_1_1_16) (* l_1_1_20 (- _a_0_ (* 10.0 _a_1_))))))
 (let ((?x93 (- (+ (- ?x99 (* l_1_1_21 (- _a_0_ (* 10.0 _a_1_)))) ?x95) l_1_1_27)))
 (let ((?x86 (- (- ?x93 (* l_1_1_28 (- _a_1_ (* 5.0 _a_3_)))) (* l_1_1_30 (+ (* (* 2.0 _a_0_) _a_3_) (* _a_1_ _a_1_))))))
 (= (- (- (+ (- (- ?x86 ?x1895) l_1_1_5) ?x81) l_1_1_9) (/ 5.0 2.0)) 0.0)))))))))))
(assert
 (let ((?x1429 (* 10.0 l_1_1_9)))
 (let ((?x1426 (* 50.0 l_1_1_7)))
 (let ((?x1358 (* 10.0 l_1_1_5)))
 (let ((?x1552 (* 10.0 l_1_1_27)))
 (let ((?x102 (* 50.0 l_1_1_22)))
 (let ((?x1548 (* 10.0 l_1_1_16)))
 (let ((?x1542 (* _a_1_ l_1_1_6)))
 (let ((?x1540 (* _a_1_ l_1_1_3)))
 (let ((?x1539 (* _a_1_ l_1_1_17)))
 (let ((?x1536 (+ (* (* (* (- 2.0) _a_0_) _a_1_) l_1_1_30) (* (* 10.0 _a_0_) l_1_1_20))))
 (let ((?x1543 (- (- (- (+ ?x1536 (* (* 10.0 _a_0_) l_1_1_21)) ?x1539) ?x1540) ?x1542)))
 (let ((?x97 (- (- (- ?x1543 (* l_1_1_10 (- _a_0_ (* 5.0 _a_1_)))) l_1_1_11) l_1_1_12)))
 (let ((?x1554 (- (+ (- (+ (- ?x97 l_1_1_15) ?x1548) ?x102) ?x1552) (* l_1_1_28 (- _a_0_ (* 5.0 _a_1_))))))
 (let ((?x1430 (+ (- (+ (- ?x1554 (* (* 2.0 l_1_1_33) l_1_1_34)) ?x1358) ?x1426) ?x1429)))
 (= (- ?x1430 4.0) 0.0))))))))))))))))
(assert
 (let ((?x1171 (* 10.0 l_1_1_31)))
 (let ((?x1169 (* 50.0 l_1_1_29)))
 (let ((?x1167 (* 10.0 l_1_1_25)))
 (let ((?x1165 (* 50.0 l_1_1_2)))
 (let ((?x1234 (* 10.0 l_1_1_18)))
 (let ((?x1232 (* _a_2_ l_1_1_6)))
 (let ((?x1230 (* _a_2_ l_1_1_3)))
 (let ((?x1226 (* _a_2_ l_1_1_17)))
 (let ((?x1220 (+ (* (* (* (- 2.0) _a_0_) _a_2_) l_1_1_30) (* (* 10.0 _a_0_) l_1_1_13))))
 (let ((?x1225 (+ (+ ?x1220 (* (* 10.0 _a_0_) l_1_1_8)) (* (* 5.0 _a_2_) l_1_1_10))))
 (let ((?x1233 (- (- (+ (- ?x1225 ?x1226) (* (* 5.0 _a_2_) l_1_1_28)) ?x1230) ?x1232)))
 (let ((?x1176 (- (+ (- (+ (- (+ ?x1233 ?x1234) ?x1165) ?x1167) ?x1169) ?x1171) (* (* 2.0 l_1_1_34) l_1_1_36))))
 (= (+ (- ?x1176 (* (* 2.0 l_1_1_35) l_1_1_37)) 1.0) 0.0))))))))))))))
(assert
 (let ((?x55 (* 20.0 l_1_1_1)))
 (let ((?x1736 (* _a_3_ l_1_1_28)))
 (let ((?x1521 (* _a_3_ l_1_1_10)))
 (let ((?x983 (+ (- (- (* (* (* (- 2.0) _a_1_) _a_3_) l_1_1_30) ?x1521) ?x1736) ?x55)))
 (let ((?x1107 (- (- ?x983 (* l_1_1_20 (- _a_1_ (* 10.0 _a_3_)))) (* l_1_1_21 (- _a_1_ (* 10.0 _a_3_))))))
 (= (- (- ?x1107 l_1_1_22) l_1_1_7) 0.0)))))))
(assert
 (let ((?x40 (- (- (- (* (- _a_3_) l_1_1_20) (* _a_3_ l_1_1_21)) l_1_1_1) (* (* l_1_1_30 _a_3_) _a_3_))))
 (= ?x40 0.0)))
(assert
 (let ((?x883 (* 10.0 l_1_1_29)))
 (let ((?x882 (* 10.0 l_1_1_2)))
 (let ((?x879 (* 100.0 l_1_1_19)))
 (let ((?x876 (* 100.0 l_1_1_14)))
 (let ((?x53 (* _a_2_ l_1_1_28)))
 (let ((?x59 (* _a_2_ l_1_1_10)))
 (let ((?x921 (+ (* (* (* (- 2.0) _a_1_) _a_2_) l_1_1_30) (* (* 10.0 _a_1_) l_1_1_13))))
 (let ((?x871 (+ (- (+ ?x921 (* (* 10.0 _a_1_) l_1_1_8)) ?x59) (* (* 10.0 _a_2_) l_1_1_20))))
 (let ((?x881 (- (- (- (+ ?x871 (* (* 10.0 _a_2_) l_1_1_21)) ?x53) ?x876) ?x879)))
 (= (- (+ (+ ?x881 ?x882) ?x883) (* (* 2.0 l_1_1_33) l_1_1_36)) 0.0)))))))))))
(assert
 (let ((?x642 (* l_1_1_38 l_1_1_38)))
 (let ((?x640 (* l_1_1_37 l_1_1_37)))
 (let ((?x637 (* l_1_1_36 l_1_1_36)))
 (let ((?x724 (* 5.0 l_1_1_29)))
 (let ((?x579 (* 100.0 l_1_1_23)))
 (let ((?x720 (* 5.0 l_1_1_2)))
 (let ((?x721 (+ (- (* (- l_1_1_13) (- _a_0_ (* 10.0 _a_2_))) l_1_1_18) ?x720)))
 (let ((?x463 (- (+ (- (- ?x721 ?x579) l_1_1_25) ?x724) (* (* l_1_1_30 _a_2_) _a_2_))))
 (let ((?x646 (- (- (- (- (- ?x463 l_1_1_31) ?x637) ?x640) ?x642) (* l_1_1_8 (- _a_0_ (* 10.0 _a_2_))))))
 (= ?x646 0.0)))))))))))
(assert
 (let ((?x35 (* 10.0 l_1_1_19)))
 (let ((?x38 (* 10.0 l_1_1_14)))
 (let ((?x458 (+ (+ (- (* (- _a_1_) l_1_1_13) (* _a_1_ l_1_1_8)) ?x38) ?x35)))
 (= (- (- ?x458 l_1_1_2) l_1_1_29) 0.0)))))
(assert
 (let ((?x11 (+ (- (* (- _a_2_) l_1_1_13) (* _a_2_ l_1_1_8)) (* 20.0 l_1_1_23))))
 (= ?x11 0.0)))
(assert
 (let ((?x35 (* 10.0 l_1_1_19)))
 (let ((?x38 (* 10.0 l_1_1_14)))
 (let ((?x808 (* _a_2_ l_1_1_21)))
 (let ((?x806 (* _a_2_ l_1_1_20)))
 (let ((?x431 (+ (- (- (* (* (* (- 2.0) _a_2_) _a_3_) l_1_1_30) ?x806) ?x808) (* (* 10.0 _a_3_) l_1_1_13))))
 (= (+ (+ (+ ?x431 (* (* 10.0 _a_3_) l_1_1_8)) ?x38) ?x35) 0.0)))))))
(assert
 (let ((?x390 (- (- (- (* (- _a_3_) l_1_1_13) (* _a_3_ l_1_1_8)) l_1_1_14) l_1_1_19)))
 (= ?x390 0.0)))
(assert
 (= (- l_1_1_23) 0.0))
(assert
 (>= l_1_1_1 0.0))
(assert
 (>= l_1_1_2 0.0))
(assert
 (>= l_1_1_3 0.0))
(assert
 (>= l_1_1_4 0.0))
(assert
 (>= l_1_1_5 0.0))
(assert
 (>= l_1_1_6 0.0))
(assert
 (>= l_1_1_7 0.0))
(assert
 (>= l_1_1_8 0.0))
(assert
 (>= l_1_1_9 0.0))
(assert
 (>= l_1_1_10 0.0))
(assert
 (>= l_1_1_11 0.0))
(assert
 (>= l_1_1_12 0.0))
(assert
 (>= l_1_1_13 0.0))
(assert
 (>= l_1_1_14 0.0))
(assert
 (>= l_1_1_15 0.0))
(assert
 (>= l_1_1_16 0.0))
(assert
 (>= l_1_1_17 0.0))
(assert
 (>= l_1_1_18 0.0))
(assert
 (>= l_1_1_19 0.0))
(assert
 (>= l_1_1_20 0.0))
(assert
 (>= l_1_1_21 0.0))
(assert
 (>= l_1_1_22 0.0))
(assert
 (>= l_1_1_23 0.0))
(assert
 (>= l_1_1_24 0.0))
(assert
 (>= l_1_1_25 0.0))
(assert
 (>= l_1_1_26 0.0))
(assert
 (>= l_1_1_27 0.0))
(assert
 (>= l_1_1_28 0.0))
(assert
 (>= l_1_1_29 0.0))
(assert
 (>= l_1_1_30 0.0))
(assert
 (>= l_1_1_31 0.0))
(assert
 (>= l_1_1_32 0.0))
(assert
 (>= l_1_1_33 0.0))
(assert
 (>= l_1_1_35 0.0))
(assert
 (>= l_1_1_38 0.0))
(assert
 (let ((?x170 (* l_1_2_47 l_1_2_47)))
 (let ((?x166 (* l_1_2_46 l_1_2_46)))
 (let ((?x205 (* 5.0 l_1_2_40)))
 (let ((?x201 (* 5.0 l_1_2_35)))
 (let ((?x198 (* 5.0 l_1_2_29)))
 (let ((?x195 (* 5.0 l_1_2_21)))
 (let ((?x237 (* 25.0 l_1_2_15)))
 (let ((?x234 (* _a_0_ l_1_2_6)))
 (let ((?x232 (* _a_0_ l_1_2_43)))
 (let ((?x230 (* _a_0_ l_1_2_42)))
 (let ((?x251 (* _a_0_ l_1_2_28)))
 (let ((?x252 (- (+ (* (- _a_0_) l_1_2_11) (* (* 5.0 _a_0_) l_1_2_18)) ?x251)))
 (let ((?x235 (- (- (- (+ ?x252 (* (* 5.0 _a_0_) l_1_2_30)) ?x230) ?x232) ?x234)))
 (let ((?x200 (- (+ (- (+ (- (- ?x235 l_1_2_1) ?x237) ?x195) l_1_2_22) ?x198) l_1_2_31)))
 (let ((?x207 (- (+ (- (- (- (+ ?x200 ?x201) l_1_2_38) l_1_2_39) l_1_2_4) ?x205) l_1_2_41)))
 (let ((?x174 (- (- (- (- ?x207 l_1_2_44) ?x166) ?x170) (* (* l_1_2_8 _a_0_) _a_0_))))
 (= (+ ?x174 (* 5.0 l_1_2_9)) 0.0))))))))))))))))))
(assert
 (let ((?x1329 (* 10.0 l_1_2_37)))
 (let ((?x1328 (* 50.0 l_1_2_36)))
 (let ((?x1321 (* 10.0 l_1_2_32)))
 (let ((?x1319 (* 10.0 l_1_2_3)))
 (let ((?x1340 (* 50.0 l_1_2_23)))
 (let ((?x189 (* 10.0 l_1_2_20)))
 (let ((?x184 (* 10.0 l_1_2_12)))
 (let ((?x1682 (* _a_2_ l_1_2_6)))
 (let ((?x1407 (* _a_2_ l_1_2_43)))
 (let ((?x1404 (* _a_2_ l_1_2_42)))
 (let ((?x1112 (* _a_2_ l_1_2_28)))
 (let ((?x1108 (* _a_2_ l_1_2_11)))
 (let ((?x1115 (+ (* (* (* (- 2.0) _a_0_) _a_2_) l_1_2_8) (* (* 10.0 _a_0_) l_1_2_17))))
 (let ((?x1111 (+ (- (+ ?x1115 (* (* 10.0 _a_0_) l_1_2_33)) ?x1108) (* (* 5.0 _a_2_) l_1_2_18))))
 (let ((?x1408 (- (- (+ (- ?x1111 ?x1112) (* (* 5.0 _a_2_) l_1_2_30)) ?x1404) ?x1407)))
 (let ((?x1333 (- (+ (+ (- (+ (+ (- ?x1408 ?x1682) ?x184) ?x189) ?x1340) ?x1319) ?x1321) ?x1328)))
 (let ((?x2246 (- (- (+ ?x1333 ?x1329) (* (* 2.0 l_1_2_46) l_1_2_48)) (* (* 2.0 l_1_2_47) l_1_2_49))))
 (= (- ?x2246 1.0) 0.0)))))))))))))))))))
(assert
 (let ((?x1257 (* l_1_2_45 l_1_2_45)))
 (let ((?x695 (* 100.0 l_1_2_16)))
 (let ((?x618 (* 15.0 l_1_2_14)))
 (let ((?x596 (* 15.0 l_1_2_10)))
 (let ((?x595 (* _a_3_ l_1_2_6)))
 (let ((?x592 (* _a_3_ l_1_2_43)))
 (let ((?x553 (* _a_3_ l_1_2_42)))
 (let ((?x593 (- (- (- (* (- _a_3_) l_1_2_11) (* _a_3_ l_1_2_28)) ?x553) ?x592)))
 (let ((?x1977 (- (- (+ (- (+ (- ?x593 ?x595) ?x596) l_1_2_13) ?x618) l_1_2_15) ?x695)))
 (let ((?x1981 (- (- ?x1977 (* l_1_2_18 (- _a_1_ (* 5.0 _a_3_)))) (* l_1_2_19 (- _a_0_ (* 10.0 _a_1_))))))
 (let ((?x1983 (- (- (- ?x1981 (* l_1_2_2 (- _a_0_ (* 10.0 _a_1_)))) l_1_2_24) l_1_2_25)))
 (let ((?x838 (- (- (- ?x1983 l_1_2_26) (* l_1_2_30 (- _a_1_ (* 5.0 _a_3_)))) l_1_2_34)))
 (let ((?x1492 (- (- ?x838 ?x1257) (* l_1_2_8 (+ (* (* 2.0 _a_0_) _a_3_) (* _a_1_ _a_1_))))))
 (= (+ ?x1492 (/ 7.0 2.0)) 0.0)))))))))))))))
(assert
 (let ((?x366 (* 10.0 l_1_2_34)))
 (let ((?x351 (* 10.0 l_1_2_26)))
 (let ((?x353 (* 10.0 l_1_2_25)))
 (let ((?x2098 (* 10.0 l_1_2_24)))
 (let ((?x2096 (* 10.0 l_1_2_15)))
 (let ((?x2090 (* 50.0 l_1_2_14)))
 (let ((?x594 (* 10.0 l_1_2_13)))
 (let ((?x590 (* 50.0 l_1_2_10)))
 (let ((?x2484 (* _a_1_ l_1_2_6)))
 (let ((?x2482 (* _a_1_ l_1_2_43)))
 (let ((?x1470 (* _a_1_ l_1_2_42)))
 (let ((?x1468 (* _a_1_ l_1_2_28)))
 (let ((?x439 (* _a_1_ l_1_2_11)))
 (let ((?x1140 (+ (* (* (* (- 2.0) _a_0_) _a_1_) l_1_2_8) (* (* 10.0 _a_0_) l_1_2_19))))
 (let ((?x2480 (- (- (- (+ ?x1140 (* (* 10.0 _a_0_) l_1_2_2)) ?x439) ?x1468) ?x1470)))
 (let ((?x2095 (- (+ (- (+ (- (- (- ?x2480 ?x2482) ?x2484) ?x590) ?x594) ?x2090) ?x2096) (* l_1_2_18 (- _a_0_ (* 5.0 _a_1_))))))
 (let ((?x362 (- (- (+ (+ (+ (- ?x2095 l_1_2_21) ?x2098) ?x353) ?x351) l_1_2_29) (* l_1_2_30 (- _a_0_ (* 5.0 _a_1_))))))
 (let ((?x1712 (- (- (- (+ ?x362 ?x366) l_1_2_35) l_1_2_40) (* (* 2.0 l_1_2_45) l_1_2_46))))
 (= (+ (- ?x1712 l_1_2_9) 3.0) 0.0))))))))))))))))))))
(assert
 (let ((?x2436 (* 100.0 l_1_2_5)))
 (let ((?x2234 (* 10.0 l_1_2_36)))
 (let ((?x2228 (* 100.0 l_1_2_27)))
 (let ((?x2320 (* 10.0 l_1_2_23)))
 (let ((?x1854 (* _a_2_ l_1_2_30)))
 (let ((?x1849 (* _a_2_ l_1_2_18)))
 (let ((?x1646 (+ (* (* (* (- 2.0) _a_1_) _a_2_) l_1_2_8) (* (* 10.0 _a_1_) l_1_2_17))))
 (let ((?x2416 (+ (- (+ ?x1646 (* (* 10.0 _a_1_) l_1_2_33)) ?x1849) (* (* 10.0 _a_2_) l_1_2_19))))
 (let ((?x2434 (- (+ (- (+ ?x2416 (* (* 10.0 _a_2_) l_1_2_2)) ?x1854) ?x2320) ?x2228)))
 (= (- (- (+ ?x2434 ?x2234) (* (* 2.0 l_1_2_45) l_1_2_48)) ?x2436) 0.0)))))))))))
(assert
 (let ((?x409 (* 20.0 l_1_2_16)))
 (let ((?x1692 (* _a_3_ l_1_2_30)))
 (let ((?x1339 (* _a_3_ l_1_2_18)))
 (let ((?x1760 (- (- (- (* (* (* (- 2.0) _a_1_) _a_3_) l_1_2_8) ?x1339) ?x1692) l_1_2_10)))
 (let ((?x393 (- (+ (- ?x1760 l_1_2_14) ?x409) (* l_1_2_19 (- _a_1_ (* 10.0 _a_3_))))))
 (= (- ?x393 (* l_1_2_2 (- _a_1_ (* 10.0 _a_3_)))) 0.0)))))))
(assert
 (let ((?x2298 (* 10.0 l_1_2_5)))
 (let ((?x1119 (* 10.0 l_1_2_27)))
 (let ((?x820 (* _a_2_ l_1_2_2)))
 (let ((?x854 (* _a_2_ l_1_2_19)))
 (let ((?x543 (+ (- (- (* (* (* (- 2.0) _a_2_) _a_3_) l_1_2_8) ?x854) ?x820) (* (* 10.0 _a_3_) l_1_2_17))))
 (= (+ (+ (+ ?x543 (* (* 10.0 _a_3_) l_1_2_33)) ?x1119) ?x2298) 0.0)))))))
(assert
 (let ((?x1838 (- (- (- (* (- _a_3_) l_1_2_19) (* _a_3_ l_1_2_2)) l_1_2_16) (* (* l_1_2_8 _a_3_) _a_3_))))
 (= ?x1838 0.0)))
(assert
 (let ((?x2345 (* 100.0 l_1_2_7)))
 (let ((?x1396 (* l_1_2_50 l_1_2_50)))
 (let ((?x402 (* l_1_2_49 l_1_2_49)))
 (let ((?x615 (* l_1_2_48 l_1_2_48)))
 (let ((?x670 (* 5.0 l_1_2_36)))
 (let ((?x902 (* 5.0 l_1_2_23)))
 (let ((?x900 (- (- (- l_1_2_12) (* l_1_2_17 (- _a_0_ (* 10.0 _a_2_)))) l_1_2_20)))
 (let ((?x669 (- (- (- (+ ?x900 ?x902) l_1_2_3) l_1_2_32) (* l_1_2_33 (- _a_0_ (* 10.0 _a_2_))))))
 (let ((?x1053 (- (- (- (- (- (- (+ ?x669 ?x670) l_1_2_37) ?x615) ?x402) ?x1396) ?x2345) (* (* l_1_2_8 _a_2_) _a_2_))))
 (= ?x1053 0.0)))))))))))
(assert
 (let ((?x2298 (* 10.0 l_1_2_5)))
 (let ((?x1119 (* 10.0 l_1_2_27)))
 (let ((?x2223 (+ (- (- (* (- _a_1_) l_1_2_17) (* _a_1_ l_1_2_33)) l_1_2_23) ?x1119)))
 (= (+ (- ?x2223 l_1_2_36) ?x2298) 0.0)))))
(assert
 (let ((?x1322 (- (- (- (* (- _a_3_) l_1_2_17) (* _a_3_ l_1_2_33)) l_1_2_27) l_1_2_5)))
 (= ?x1322 0.0)))
(assert
 (let ((?x161 (+ (- (* (- _a_2_) l_1_2_17) (* _a_2_ l_1_2_33)) (* 20.0 l_1_2_7))))
 (= ?x161 0.0)))
(assert
 (= (- l_1_2_7) 0.0))
(assert
 (>= l_1_2_1 0.0))
(assert
 (>= l_1_2_2 0.0))
(assert
 (>= l_1_2_3 0.0))
(assert
 (>= l_1_2_4 0.0))
(assert
 (>= l_1_2_5 0.0))
(assert
 (>= l_1_2_6 0.0))
(assert
 (>= l_1_2_7 0.0))
(assert
 (>= l_1_2_8 0.0))
(assert
 (>= l_1_2_9 0.0))
(assert
 (>= l_1_2_10 0.0))
(assert
 (>= l_1_2_11 0.0))
(assert
 (>= l_1_2_12 0.0))
(assert
 (>= l_1_2_13 0.0))
(assert
 (>= l_1_2_14 0.0))
(assert
 (>= l_1_2_15 0.0))
(assert
 (>= l_1_2_16 0.0))
(assert
 (>= l_1_2_17 0.0))
(assert
 (>= l_1_2_18 0.0))
(assert
 (>= l_1_2_19 0.0))
(assert
 (>= l_1_2_20 0.0))
(assert
 (>= l_1_2_21 0.0))
(assert
 (>= l_1_2_22 0.0))
(assert
 (>= l_1_2_23 0.0))
(assert
 (>= l_1_2_24 0.0))
(assert
 (>= l_1_2_25 0.0))
(assert
 (>= l_1_2_26 0.0))
(assert
 (>= l_1_2_27 0.0))
(assert
 (>= l_1_2_28 0.0))
(assert
 (>= l_1_2_29 0.0))
(assert
 (>= l_1_2_30 0.0))
(assert
 (>= l_1_2_31 0.0))
(assert
 (>= l_1_2_32 0.0))
(assert
 (>= l_1_2_33 0.0))
(assert
 (>= l_1_2_34 0.0))
(assert
 (>= l_1_2_35 0.0))
(assert
 (>= l_1_2_36 0.0))
(assert
 (>= l_1_2_37 0.0))
(assert
 (>= l_1_2_38 0.0))
(assert
 (>= l_1_2_39 0.0))
(assert
 (>= l_1_2_40 0.0))
(assert
 (>= l_1_2_41 0.0))
(assert
 (>= l_1_2_42 0.0))
(assert
 (>= l_1_2_43 0.0))
(assert
 (>= l_1_2_44 0.0))
(assert
 (>= l_1_2_45 0.0))
(assert
 (>= l_1_2_47 0.0))
(assert
 (>= l_1_2_50 0.0))
(assert
 (let ((?x2364 (* l_1_3_35 l_1_3_35)))
 (let ((?x2371 (* l_1_3_34 l_1_3_34)))
 (let ((?x1641 (* 5.0 l_1_3_29)))
 (let ((?x1644 (* 25.0 l_1_3_28)))
 (let ((?x679 (* 5.0 l_1_3_21)))
 (let ((?x2133 (* 5.0 l_1_3_1)))
 (let ((?x2373 (* (/ 11.0 2.0) _a_2_)))
 (let ((?x406 (* _a_0_ l_1_3_8)))
 (let ((?x248 (- (- (* (- _a_0_) l_1_3_12) (* _a_0_ l_1_3_23)) (* (* 5.0 _a_0_) l_1_3_4))))
 (let ((?x2378 (+ (+ (- (- ?x248 (* (* 5.0 _a_0_) l_1_3_7)) ?x406) _a_0_) (* 1.0 _a_1_))))
 (let ((?x674 (- (- (- (+ (+ ?x2378 ?x2373) (* 1.0 _a_3_)) ?x2133) l_1_3_11) ?x679)))
 (let ((?x1412 (- (- (- (- ?x674 l_1_3_27) ?x1644) ?x1641) (* (* l_1_3_31 _a_0_) _a_0_))))
 (= (- (- (- (- ?x1412 l_1_3_32) ?x2371) ?x2364) l_1_3_6) 0.0))))))))))))))
(assert
 (let ((?x2250 (* 10.0 l_1_3_28)))
 (let ((?x2549 (* 50.0 l_1_3_22)))
 (let ((?x214 (* 50.0 l_1_3_2)))
 (let ((?x182 (* 10.0 l_1_3_17)))
 (let ((?x180 (* 10.0 l_1_3_14)))
 (let ((?x2011 (* 10.0 l_1_3_13)))
 (let ((?x2013 (* 2.0 _a_3_)))
 (let ((?x2373 (* (/ 11.0 2.0) _a_2_)))
 (let ((?x1385 (* _a_1_ l_1_3_8)))
 (let ((?x1740 (* _a_1_ l_1_3_23)))
 (let ((?x1401 (* _a_1_ l_1_3_12)))
 (let ((?x2407 (- (* (* (* (- 2.0) _a_0_) _a_1_) l_1_3_31) (* (* 10.0 _a_0_) l_1_3_16))))
 (let ((?x1388 (- (- (- (- ?x2407 (* (* 10.0 _a_0_) l_1_3_3)) ?x1401) ?x1740) ?x1385)))
 (let ((?x1014 (- (- (- (+ (+ (+ (+ ?x1388 _a_1_) ?x2373) ?x2013) l_1_3_1) ?x2011) ?x180) ?x182)))
 (let ((?x1756 (- (+ (+ (- (+ (- ?x1014 ?x214) l_1_3_21) ?x2549) ?x2250) l_1_3_29) (* (* 2.0 l_1_3_33) l_1_3_34))))
 (let ((?x482 (- (- ?x1756 (* l_1_3_4 (+ (- _a_0_) (* 5.0 _a_1_)))) (* l_1_3_7 (+ (- _a_0_) (* 5.0 _a_1_))))))
 (= ?x482 0.0))))))))))))))))))
(assert
 (let ((?x775 (* 10.0 l_1_3_25)))
 (let ((?x772 (* 50.0 l_1_3_24)))
 (let ((?x771 (* 50.0 l_1_3_20)))
 (let ((?x767 (* 10.0 l_1_3_19)))
 (let ((?x399 (* 10.0 l_1_3_18)))
 (let ((?x1287 (* _a_2_ l_1_3_8)))
 (let ((?x1764 (* _a_2_ l_1_3_23)))
 (let ((?x1116 (* _a_2_ l_1_3_12)))
 (let ((?x559 (- (* (* (* (- 2.0) _a_0_) _a_2_) l_1_3_31) (* (* 10.0 _a_0_) l_1_3_10))))
 (let ((?x1767 (- (- (- (- ?x559 (* (* 10.0 _a_0_) l_1_3_5)) ?x1116) ?x1764) (* (* 5.0 _a_2_) l_1_3_4))))
 (let ((?x400 (- (+ (- (- ?x1767 (* (* 5.0 _a_2_) l_1_3_7)) ?x1287) _a_2_) ?x399)))
 (let ((?x1598 (- (- (- (- (- ?x400 ?x767) ?x771) ?x772) ?x775) (* (* 2.0 l_1_3_34) l_1_3_36))))
 (= (- ?x1598 (* (* 2.0 l_1_3_35) l_1_3_37)) 0.0))))))))))))))
(assert
 (let ((?x1867 (* l_1_3_33 l_1_3_33)))
 (let ((?x1885 (* 100.0 l_1_3_30)))
 (let ((?x2164 (* 15.0 l_1_3_22)))
 (let ((?x2350 (* 15.0 l_1_3_2)))
 (let ((?x2560 (* _a_3_ l_1_3_8)))
 (let ((?x2558 (+ (- (- (* (- _a_3_) l_1_3_12) (* _a_3_ l_1_3_23)) ?x2560) _a_3_)))
 (let ((?x2380 (- (+ (+ ?x2558 l_1_3_13) l_1_3_14) (* l_1_3_16 (+ (- _a_0_) (* 10.0 _a_1_))))))
 (let ((?x1952 (- (- (+ (+ (+ ?x2380 l_1_3_17) ?x2350) ?x2164) l_1_3_28) (* l_1_3_3 (+ (- _a_0_) (* 10.0 _a_1_))))))
 (let ((?x1873 (- (- ?x1952 ?x1885) (* l_1_3_31 (+ (* (* 2.0 _a_0_) _a_3_) (* _a_1_ _a_1_))))))
 (let ((?x1826 (- (- (- ?x1873 ?x1867) (* l_1_3_4 (+ (- _a_1_) (* 5.0 _a_3_)))) (* l_1_3_7 (+ (- _a_1_) (* 5.0 _a_3_))))))
 (= ?x1826 0.0))))))))))))
(assert
 (let ((?x568 (* _a_3_ l_1_3_7)))
 (let ((?x869 (* _a_3_ l_1_3_4)))
 (let ((?x330 (- (+ (+ (* (* (* (- 2.0) _a_1_) _a_3_) l_1_3_31) ?x869) ?x568) (* l_1_3_16 (+ (- _a_1_) (* 10.0 _a_3_))))))
 (let ((?x333 (- (- (- ?x330 l_1_3_2) l_1_3_22) (* l_1_3_3 (+ (- _a_1_) (* 10.0 _a_3_))))))
 (= (+ ?x333 (* 20.0 l_1_3_30)) 0.0))))))
(assert
 (let ((?x2659 (* 100.0 l_1_3_26)))
 (let ((?x2657 (* 10.0 l_1_3_24)))
 (let ((?x2655 (* 10.0 l_1_3_20)))
 (let ((?x2653 (* 100.0 l_1_3_15)))
 (let ((?x1269 (* _a_2_ l_1_3_7)))
 (let ((?x2537 (* _a_2_ l_1_3_4)))
 (let ((?x2644 (- (* (* (* (- 2.0) _a_1_) _a_2_) l_1_3_31) (* (* 10.0 _a_1_) l_1_3_10))))
 (let ((?x2648 (- (- ?x2644 (* (* 10.0 _a_1_) l_1_3_5)) (* (* 10.0 _a_2_) l_1_3_16))))
 (let ((?x2654 (- (+ (+ (- ?x2648 (* (* 10.0 _a_2_) l_1_3_3)) ?x2537) ?x1269) ?x2653)))
 (let ((?x2662 (- (- (+ (+ ?x2654 ?x2655) ?x2657) ?x2659) (* (* 2.0 l_1_3_33) l_1_3_36))))
 (= ?x2662 0.0))))))))))))
(assert
 (let ((?x2716 (* 10.0 l_1_3_26)))
 (let ((?x2714 (* 10.0 l_1_3_15)))
 (let ((?x2684 (* _a_2_ l_1_3_3)))
 (let ((?x2678 (* _a_2_ l_1_3_16)))
 (let ((?x2711 (- (+ (+ (* (* (* (- 2.0) _a_2_) _a_3_) l_1_3_31) ?x2678) ?x2684) (* (* 10.0 _a_3_) l_1_3_10))))
 (= (+ (+ (- ?x2711 (* (* 10.0 _a_3_) l_1_3_5)) ?x2714) ?x2716) 0.0)))))))
(assert
 (let ((?x2740 (- (- (+ (* _a_3_ l_1_3_16) (* _a_3_ l_1_3_3)) l_1_3_30) (* (* l_1_3_31 _a_3_) _a_3_))))
 (= ?x2740 0.0)))
(assert
 (let ((?x2771 (* 100.0 l_1_3_9)))
 (let ((?x2767 (* l_1_3_38 l_1_3_38)))
 (let ((?x2765 (* l_1_3_37 l_1_3_37)))
 (let ((?x2763 (* l_1_3_36 l_1_3_36)))
 (let ((?x2757 (* 5.0 l_1_3_24)))
 (let ((?x2755 (* 5.0 l_1_3_20)))
 (let ((?x2754 (+ (+ (* (- l_1_3_10) (+ (- _a_0_) (* 10.0 _a_2_))) l_1_3_18) l_1_3_19)))
 (let ((?x2762 (- (+ (+ (+ ?x2754 ?x2755) ?x2757) l_1_3_25) (* (* l_1_3_31 _a_2_) _a_2_))))
 (let ((?x2770 (- (- (- (- ?x2762 ?x2763) ?x2765) ?x2767) (* l_1_3_5 (+ (- _a_0_) (* 10.0 _a_2_))))))
 (= (- ?x2770 ?x2771) 0.0)))))))))))
(assert
 (let ((?x2716 (* 10.0 l_1_3_26)))
 (let ((?x2714 (* 10.0 l_1_3_15)))
 (let ((?x2821 (- (+ (+ (* _a_1_ l_1_3_10) (* _a_1_ l_1_3_5)) ?x2714) l_1_3_20)))
 (= (+ (- ?x2821 l_1_3_24) ?x2716) 0.0)))))
(assert
 (let ((?x2840 (* 20.0 l_1_3_9)))
 (= (+ (+ (* _a_2_ l_1_3_10) (* _a_2_ l_1_3_5)) ?x2840) 0.0)))
(assert
 (let ((?x2847 (- (- (+ (* _a_3_ l_1_3_10) (* _a_3_ l_1_3_5)) l_1_3_15) l_1_3_26)))
 (= ?x2847 0.0)))
(assert
 (= (- l_1_3_9) 0.0))
(assert
 (>= l_1_3_1 0.0))
(assert
 (>= l_1_3_2 0.0))
(assert
 (>= l_1_3_3 0.0))
(assert
 (>= l_1_3_4 0.0))
(assert
 (>= l_1_3_5 0.0))
(assert
 (>= l_1_3_6 0.0))
(assert
 (>= l_1_3_7 0.0))
(assert
 (>= l_1_3_8 0.0))
(assert
 (>= l_1_3_9 0.0))
(assert
 (>= l_1_3_10 0.0))
(assert
 (>= l_1_3_11 0.0))
(assert
 (>= l_1_3_12 0.0))
(assert
 (>= l_1_3_13 0.0))
(assert
 (>= l_1_3_14 0.0))
(assert
 (>= l_1_3_15 0.0))
(assert
 (>= l_1_3_16 0.0))
(assert
 (>= l_1_3_17 0.0))
(assert
 (>= l_1_3_18 0.0))
(assert
 (>= l_1_3_19 0.0))
(assert
 (>= l_1_3_20 0.0))
(assert
 (>= l_1_3_21 0.0))
(assert
 (>= l_1_3_22 0.0))
(assert
 (>= l_1_3_23 0.0))
(assert
 (>= l_1_3_24 0.0))
(assert
 (>= l_1_3_25 0.0))
(assert
 (>= l_1_3_26 0.0))
(assert
 (>= l_1_3_27 0.0))
(assert
 (>= l_1_3_28 0.0))
(assert
 (>= l_1_3_29 0.0))
(assert
 (>= l_1_3_30 0.0))
(assert
 (>= l_1_3_31 0.0))
(assert
 (>= l_1_3_32 0.0))
(assert
 (>= l_1_3_33 0.0))
(assert
 (>= l_1_3_35 0.0))
(assert
 (>= l_1_3_38 0.0))
(check-sat)
(get-model)